nj = 5;
nm = 4;
pidle =  [2 1 1 1];
Ops =  {<1 1 1 8 0 5 3> <1 2 2 16 0 1 4>
     <1 3 4 12 1 2 3>
     <2 1 1 20 0 5 5>
     <2 2 3 10 0 1 4>
     <2 3 2 18 1 3 3>
     <3 1 3 12 0 5 5>
     <3 2 4 8 0 3 3>
     <3 3 1 15 1 4 4>
     <4 1 4 14 0 5 4>
     <4 2 2 18 1 4 3>
     <5 1 3 10 0 5 3>
     <5 2 1 15 1 3 4>};
